
Gurobi 10.0.0 (win64) logging started Tue Jun  4 16:35:04 2024

Set parameter LogFile to value "C:\Users\ealvarezq\Documents\GitHub\Comillas\Models\JointResearch\05. Models\06.Benchmarking\K.Investments_per_hour\9n_mod1_ByStages_nc10/openStarNet_9n_mod1_ByStages_nc10.log"
Set parameter Method to value 2
Set parameter MIPFocus to value 1
Set parameter Presolve to value 2
Set parameter RINS to value 100
Set parameter MIPGap to value 0.01
Set parameter Threads to value 9
Set parameter TimeLimit to value 259200
Set parameter IterationLimit to value 760000000
Gurobi Optimizer version 10.0.0 build v10.0.0rc2 (win64)

CPU model: Intel(R) Core(TM) i7-8700 CPU @ 3.20GHz, instruction set [SSE2|AVX|AVX2]
Thread count: 6 physical cores, 12 logical processors, using up to 9 threads

Optimize a model with 2623 rows, 1429 columns and 7958 nonzeros
Model fingerprint: 0x5e226c5c
Variable types: 1393 continuous, 36 integer (36 binary)
Coefficient statistics:
  Matrix range     [4e-04, 1e+04]
  Objective range  [1e+00, 1e+00]
  Bounds range     [1e-04, 2e+00]
  RHS range        [1e-04, 1e+00]
Presolve removed 893 rows and 473 columns
Presolve time: 0.01s
Presolved: 1730 rows, 956 columns, 5920 nonzeros
Variable types: 920 continuous, 36 integer (36 binary)
Found heuristic solution: objective 4466.8185294
Root relaxation presolved: 1730 rows, 956 columns, 5920 nonzeros

Root barrier log...

Ordering time: 0.03s

Barrier statistics:
 AA' NZ     : 4.497e+04
 Factor NZ  : 2.356e+05 (roughly 3 MB of memory)
 Factor Ops : 5.204e+07 (less than 1 second per iteration)
 Threads    : 9

                  Objective                Residual
Iter       Primal          Dual         Primal    Dual     Compl     Time
   0   4.73220174e+05 -2.92223897e+07  6.96e+00 1.30e+03  3.22e+04     0s
   1   4.38782716e+04 -1.17165023e+07  7.18e-01 1.02e-10  4.54e+03     0s
   2   8.50389769e+03 -8.19572655e+06  2.22e-02 1.76e-10  2.39e+03     0s
   3   4.58641094e+03 -1.55744355e+05  7.22e-15 5.93e-11  4.62e+01     0s
   4   1.42309259e+03 -2.46150528e+04  2.49e-14 9.10e-12  7.50e+00     0s
   5   6.17622237e+02 -5.31673529e+03  1.07e-14 4.32e-12  1.71e+00     0s
   6   2.84511865e+02 -5.11155774e+02  1.78e-14 7.15e-12  2.29e-01     0s
   7   1.21195343e+02 -1.38511010e+02  7.99e-15 3.17e-12  7.48e-02     0s
   8   7.26929574e+01 -4.66061777e-01  2.40e-14 5.30e-12  2.11e-02     0s
   9   4.91776032e+01  3.69676861e+01  1.29e-13 5.43e-12  3.52e-03     0s
  10   4.69999589e+01  4.12264454e+01  5.77e-13 3.53e-12  1.66e-03     0s
  11   4.50387054e+01  4.26661530e+01  8.81e-13 3.99e-12  6.83e-04     0s
  12   4.45500172e+01  4.36630214e+01  8.60e-12 4.98e-12  2.55e-04     0s
  13   4.42391617e+01  4.38856726e+01  4.31e-11 4.71e-12  1.02e-04     0s
  14   4.41638398e+01  4.41496684e+01  1.96e-12 3.51e-12  4.08e-06     0s
  15   4.41596209e+01  4.41595650e+01  1.99e-12 1.01e-11  1.61e-08     0s
  16   4.41596026e+01  4.41596026e+01  3.72e-12 4.09e-12  8.06e-13     0s

Barrier solved model in 16 iterations and 0.10 seconds (0.06 work units)
Optimal objective 4.41596026e+01


Root relaxation: objective 4.415960e+01, 182 iterations, 0.09 seconds (0.05 work units)

    Nodes    |    Current Node    |     Objective Bounds      |     Work
 Expl Unexpl |  Obj  Depth IntInf | Incumbent    BestBd   Gap | It/Node Time

     0     0   44.15960    0    6 4466.81853   44.15960  99.0%     -    0s
H    0     0                      48.4004302   44.15960  8.76%     -    0s
     0     0   46.30497    0    1   48.40043   46.30497  4.33%     -    0s
     0     0   46.30497    0    3   48.40043   46.30497  4.33%     -    0s
H    0     0                      46.5319102   46.30497  0.49%     -    0s

Cutting planes:
  Gomory: 1
  MIR: 10

Explored 1 nodes (263 simplex iterations) in 0.19 seconds (0.10 work units)
Thread count was 9 (of 12 available processors)

Solution count 3: 46.5319 48.4004 4466.82 

Optimal solution found (tolerance 1.00e-02)
Best objective 4.653191017973e+01, best bound 4.653191017973e+01, gap 0.0000%

Gurobi 10.0.0 (win64) logging started Tue Jun  4 16:35:05 2024

Set parameter LogFile to value "C:\Users\ealvarezq\Documents\GitHub\Comillas\Models\JointResearch\05. Models\06.Benchmarking\K.Investments_per_hour\9n_mod1_ByStages_nc10/openStarNet_9n_mod1_ByStages_nc10.log"
Set parameter Method to value 2
Set parameter MIPFocus to value 1
Set parameter Presolve to value 2
Set parameter RINS to value 100
Set parameter MIPGap to value 0.01
Set parameter Threads to value 9
Set parameter TimeLimit to value 259200
Set parameter IterationLimit to value 760000000
Gurobi Optimizer version 10.0.0 build v10.0.0rc2 (win64)

CPU model: Intel(R) Core(TM) i7-8700 CPU @ 3.20GHz, instruction set [SSE2|AVX|AVX2]
Thread count: 6 physical cores, 12 logical processors, using up to 9 threads

Optimize a model with 2623 rows, 1393 columns and 6482 nonzeros
Model fingerprint: 0xfeec2c95
Coefficient statistics:
  Matrix range     [4e-04, 1e+04]
  Objective range  [1e+00, 1e+00]
  Bounds range     [1e-04, 2e+00]
  RHS range        [1e-04, 2e+01]
Presolve removed 2391 rows and 923 columns
Presolve time: 0.00s
Presolved: 232 rows, 480 columns, 1034 nonzeros

Ordering time: 0.00s

Barrier statistics:
 AA' NZ     : 5.100e+02
 Factor NZ  : 2.296e+03
 Factor Ops : 2.993e+04 (less than 1 second per iteration)
 Threads    : 1

                  Objective                Residual
Iter       Primal          Dual         Primal    Dual     Compl     Time
   0   4.58296890e+05 -1.79656721e+07  5.56e+00 2.53e+03  7.48e+04     0s
   1   7.77846575e+04 -8.24532063e+06  9.50e-01 8.00e-11  1.42e+04     0s
   2   1.65215286e+04 -2.20282962e+06  6.55e-02 7.28e-11  2.26e+03     0s
   3   7.00585038e+03 -7.51143393e+04  2.36e-03 6.55e-11  7.63e+01     0s
   4   1.75748209e+03 -5.19104843e+03  1.32e-04 1.76e-09  6.37e+00     0s
   5   4.98121453e+02 -1.45898207e+03  1.84e-05 4.91e-10  1.79e+00     0s
   6   1.68808230e+02 -4.31255321e+02  3.20e-06 1.58e-10  5.50e-01     0s
   7   6.84097207e+01 -2.66924274e+01  6.90e-08 2.48e-11  8.71e-02     0s
   8   5.73430124e+01 -2.04666035e-01  2.38e-08 1.60e-11  5.27e-02     0s
   9   5.00000284e+01  3.78332135e+01  3.29e-09 5.15e-12  1.11e-02     0s
  10   4.71199573e+01  4.53476651e+01  2.06e-10 7.11e-12  1.62e-03     0s
  11   4.66528482e+01  4.63174562e+01  3.07e-11 2.31e-11  3.07e-04     0s
  12   4.65721856e+01  4.64989219e+01  9.79e-12 4.56e-12  6.71e-05     0s
  13   4.65353134e+01  4.65234044e+01  7.39e-13 1.35e-11  1.09e-05     0s
  14   4.65320985e+01  4.65318683e+01  4.40e-14 1.58e-11  2.11e-07     0s
  15   4.65319104e+01  4.65319101e+01  2.85e-14 6.37e-12  2.14e-10     0s

Barrier solved model in 15 iterations and 0.01 seconds (0.01 work units)
Optimal objective 4.65319104e+01

Crossover log...

     107 DPushes remaining with DInf 0.0000000e+00                 0s
       0 DPushes remaining with DInf 0.0000000e+00                 0s

       4 PPushes remaining with PInf 0.0000000e+00                 0s
       0 PPushes remaining with PInf 0.0000000e+00                 0s

  Push phase complete: Pinf 0.0000000e+00, Dinf 7.7487712e-14      0s

Iteration    Objective       Primal Inf.    Dual Inf.      Time
      11    4.6531910e+01   0.000000e+00   0.000000e+00      0s

Solved in 11 iterations and 0.01 seconds (0.01 work units)
Optimal objective  4.653191018e+01

Gurobi 11.0.0 (linux64) logging started Tue Aug  6 22:32:56 2024

Set parameter LogFile to value "/lustre1/scratch/348/vsc34888/JointResearch/05.Models/06.Benchmarking/K.Investments_per_hour/9n_mod1_ByStages_nc10/openStarNet_9n_mod1_ByStages_nc10.log"
Set parameter Method to value 2
Set parameter MIPFocus to value 1
Set parameter Presolve to value 2
Set parameter RINS to value 100
Set parameter MIPGap to value 0.01
Set parameter Threads to value 36
Set parameter TimeLimit to value 259200
Set parameter IterationLimit to value 760000000
Gurobi Optimizer version 11.0.0 build v11.0.0rc2 (linux64 - "Rocky Linux 8.9 (Green Obsidian)")

CPU model: Intel(R) Xeon(R) Gold 6240 CPU @ 2.60GHz, instruction set [SSE2|AVX|AVX2|AVX512]
Thread count: 36 physical cores, 36 logical processors, using up to 36 threads

Optimize a model with 2623 rows, 1393 columns and 6482 nonzeros
Model fingerprint: 0xa5df7c7c
Coefficient statistics:
  Matrix range     [4e-04, 1e+04]
  Objective range  [1e+00, 1e+00]
  Bounds range     [1e-04, 2e+00]
  RHS range        [1e-04, 1e+00]
Presolve removed 2383 rows and 924 columns
Presolve time: 0.01s
Presolved: 240 rows, 489 columns, 1109 nonzeros

Ordering time: 0.00s

Barrier statistics:
 AA' NZ     : 6.200e+02
 Factor NZ  : 2.520e+03
 Factor Ops : 3.460e+04 (less than 1 second per iteration)
 Threads    : 1

                  Objective                Residual
Iter       Primal          Dual         Primal    Dual     Compl     Time
   0   4.43965489e+05 -1.83362942e+07  4.94e+00 1.46e-11  7.38e+04     0s
   1   7.63399427e+04 -8.27282834e+06  7.89e-01 7.15e-11  1.35e+04     0s
   2   1.84587951e+04 -2.45277523e+06  2.75e-02 4.79e-11  2.34e+03     0s
   3   1.12384567e+04 -5.37774774e+04  5.33e-15 8.73e-11  5.87e+01     0s
   4   5.77334412e+03 -3.39721074e+03  7.55e-15 2.91e-11  8.28e+00     0s
   5   5.06183375e+03  2.30889460e+03  9.10e-15 7.28e-12  2.48e+00     0s
   6   4.73422604e+03  3.62007287e+03  4.88e-15 3.64e-12  1.01e+00     0s
   7   4.52570309e+03  4.33283660e+03  8.10e-15 1.46e-11  1.74e-01     0s
   8   4.48684315e+03  4.41875995e+03  4.00e-15 1.46e-11  6.14e-02     0s
   9   4.47117211e+03  4.45638593e+03  5.44e-15 7.28e-12  1.33e-02     0s
  10   4.46760547e+03  4.46547937e+03  2.33e-15 5.46e-12  1.92e-03     0s
  11   4.46686533e+03  4.46663347e+03  4.22e-15 1.46e-11  2.09e-04     0s
  12   4.46682611e+03  4.46676819e+03  8.99e-15 1.46e-11  5.23e-05     0s
  13   4.46681908e+03  4.46681272e+03  7.11e-15 7.28e-12  5.74e-06     0s
  14   4.46681855e+03  4.46681851e+03  1.05e-14 1.46e-11  3.27e-08     0s
  15   4.46681853e+03  4.46681853e+03  1.63e-14 3.64e-12  3.27e-11     0s

Barrier solved model in 15 iterations and 0.02 seconds (0.00 work units)
Optimal objective 4.46681853e+03

Crossover log...

     108 DPushes remaining with DInf 0.0000000e+00                 0s
       0 DPushes remaining with DInf 0.0000000e+00                 0s

       4 PPushes remaining with PInf 0.0000000e+00                 0s
       0 PPushes remaining with PInf 0.0000000e+00                 0s

  Push phase complete: Pinf 0.0000000e+00, Dinf 8.9324490e-14      0s

Iteration    Objective       Primal Inf.    Dual Inf.      Time
      16    4.4668185e+03   0.000000e+00   0.000000e+00      0s

Solved in 16 iterations and 0.03 seconds (0.01 work units)
Optimal objective  4.466818529e+03

Gurobi 11.0.0 (linux64) logging started Tue Aug  6 22:32:57 2024

Set parameter LogFile to value "/lustre1/scratch/348/vsc34888/JointResearch/05.Models/06.Benchmarking/K.Investments_per_hour/9n_mod1_ByStages_nc10/openStarNet_9n_mod1_ByStages_nc10.log"
Set parameter Method to value 2
Set parameter MIPFocus to value 1
Set parameter Presolve to value 2
Set parameter RINS to value 100
Set parameter MIPGap to value 0.01
Set parameter Threads to value 36
Set parameter TimeLimit to value 259200
Set parameter IterationLimit to value 760000000
Gurobi Optimizer version 11.0.0 build v11.0.0rc2 (linux64 - "Rocky Linux 8.9 (Green Obsidian)")

CPU model: Intel(R) Xeon(R) Gold 6240 CPU @ 2.60GHz, instruction set [SSE2|AVX|AVX2|AVX512]
Thread count: 36 physical cores, 36 logical processors, using up to 36 threads

Optimize a model with 2623 rows, 1393 columns and 6482 nonzeros
Model fingerprint: 0xa5df7c7c
Coefficient statistics:
  Matrix range     [4e-04, 1e+04]
  Objective range  [1e+00, 1e+00]
  Bounds range     [1e-04, 2e+00]
  RHS range        [1e-04, 1e+00]
Presolve removed 2383 rows and 924 columns
Presolve time: 0.00s
Presolved: 240 rows, 489 columns, 1109 nonzeros

Ordering time: 0.00s

Barrier statistics:
 AA' NZ     : 6.200e+02
 Factor NZ  : 2.520e+03
 Factor Ops : 3.460e+04 (less than 1 second per iteration)
 Threads    : 1

                  Objective                Residual
Iter       Primal          Dual         Primal    Dual     Compl     Time
   0   4.43965489e+05 -1.83362942e+07  4.94e+00 1.46e-11  7.38e+04     0s
   1   7.63399427e+04 -8.27282834e+06  7.89e-01 7.15e-11  1.35e+04     0s
   2   1.84587951e+04 -2.45277523e+06  2.75e-02 4.79e-11  2.34e+03     0s
   3   1.12384567e+04 -5.37774774e+04  5.33e-15 8.73e-11  5.87e+01     0s
   4   5.77334412e+03 -3.39721074e+03  7.55e-15 2.91e-11  8.28e+00     0s
   5   5.06183375e+03  2.30889460e+03  9.10e-15 7.28e-12  2.48e+00     0s
   6   4.73422604e+03  3.62007287e+03  4.88e-15 3.64e-12  1.01e+00     0s
   7   4.52570309e+03  4.33283660e+03  8.10e-15 1.46e-11  1.74e-01     0s
   8   4.48684315e+03  4.41875995e+03  4.00e-15 1.46e-11  6.14e-02     0s
   9   4.47117211e+03  4.45638593e+03  5.44e-15 7.28e-12  1.33e-02     0s
  10   4.46760547e+03  4.46547937e+03  2.33e-15 5.46e-12  1.92e-03     0s
  11   4.46686533e+03  4.46663347e+03  4.22e-15 1.46e-11  2.09e-04     0s
  12   4.46682611e+03  4.46676819e+03  8.99e-15 1.46e-11  5.23e-05     0s
  13   4.46681908e+03  4.46681272e+03  7.11e-15 7.28e-12  5.74e-06     0s
  14   4.46681855e+03  4.46681851e+03  1.05e-14 1.46e-11  3.27e-08     0s
  15   4.46681853e+03  4.46681853e+03  1.63e-14 3.64e-12  3.27e-11     0s

Barrier solved model in 15 iterations and 0.01 seconds (0.00 work units)
Optimal objective 4.46681853e+03

Crossover log...

     108 DPushes remaining with DInf 0.0000000e+00                 0s
       0 DPushes remaining with DInf 0.0000000e+00                 0s

       4 PPushes remaining with PInf 0.0000000e+00                 0s
       0 PPushes remaining with PInf 0.0000000e+00                 0s

  Push phase complete: Pinf 0.0000000e+00, Dinf 8.9324490e-14      0s

Iteration    Objective       Primal Inf.    Dual Inf.      Time
      16    4.4668185e+03   0.000000e+00   0.000000e+00      0s

Solved in 16 iterations and 0.01 seconds (0.01 work units)
Optimal objective  4.466818529e+03
